NAME : CON3-4.5887913.tour
COMMENT : Cost = 0_5887913
COMMENT : Found by LKH [Keld Helsgaun] Sat Sep  9 21:17:06 2017
TYPE : TOUR
DIMENSION : 54
TOUR_SECTION
1
18
6
53
47
24
30
12
41
38
14
36
45
9
21
32
33
54
23
20
7
2
4
28
43
25
34
42
51
39
5
15
13
46
50
37
52
27
22
48
35
31
17
8
40
19
16
29
10
26
3
11
49
44
-1
EOF
